g3 0 1 0	# problem haverly1_qq
 35 27 1 0 27	# vars, constraints, objectives, ranges, eqns
 7 0	# nonlinear constraints, objectives
 0 0	# network constraints: nonlinear, linear
 8 0 0	# nonlinear vars in constraints, objectives, both
 0 0 0 1	# linear network variables; functions; arith, flags
 0 0 0 0 0	# discrete variables: binary, integer, nonlinear (b,c,o)
 89 2	# nonzeros in Jacobian, gradients
 0 0	# max name lengths: constraints, variables
 0 0 0 0 0	# common exprs: b,c,o,c1,o1
b
2 0
2 0
2 0
2 0
2 0
2 0
2 0
0 0 300
2 0
2 0
2 0
2 0
2 0
2 0
0 0 2.5
0 0 1.5
2 0
2 0
2 0
2 0
2 0
0 0 100
0 0 200
4 0
4 0
4 0
4 0
0 0 100
0 0 200
0 0 300
0 0 300
0 0 300
2 0
2 0
2 0
r
4 0
4 0
4 0
4 0
4 0
4 0
4 0
4 1
4 1
4 0
4 0
4 1
4 1
4 1
4 0
4 0
4 0
4 0
4 0
4 0
4 0
4 0
4 0
4 0
4 0
4 0
4 0
C0
o16
o2
v3
v5
C1
o16
o2
v4
v5
C2
o16
o2
v3
v6
C3
o16
o2
v4
v6
C4
o16
o2
v0
v7
C5
o16
o2
v1
v7
C6
o16
o2
v2
v7
C7
n0
C8
n0
C9
n0
C10
n0
C11
n0
C12
n0
C13
n0
C14
n0
C15
n0
C16
n0
C17
n0
C18
n0
C19
n0
C20
n0
C21
n0
C22
n0
C23
n0
C24
n0
C25
n0
C26
n0
O0 0
n0
k34
5
10
15
19
23
26
29
33
37
41
45
49
53
57
58
59
60
61
63
65
67
69
71
73
75
77
79
81
83
84
85
86
87
88
J0 6
3 0
5 0
8 -3
9 -1
10 -2
14 1
J1 6
4 0
5 0
11 -3
12 -1
13 -2
15 1
J2 6
3 0
6 0
8 -6
9 -16
10 -10
16 1
J3 6
4 0
6 0
11 -6
12 -16
13 -10
17 1
J4 3
0 0
7 0
18 1
J5 3
1 0
7 0
19 1
J6 3
2 0
7 0
20 1
J7 2
0 1
32 1
J8 2
1 1
33 1
J9 2
2 1
34 1
J10 4
0 -3
1 -1
2 -2
5 1
J11 3
0 1
1 1
2 1
J12 4
3 1
8 1
9 1
10 1
J13 4
4 1
11 1
12 1
13 1
J14 4
0 -6
1 -16
2 -10
6 1
J15 2
3 -100
21 1
J16 2
4 -200
22 1
J17 3
7 1
21 -1
22 -1
J18 2
8 -100
23 1
J19 2
11 -200
24 1
J20 2
9 -100
25 1
J21 2
12 -200
26 1
J22 2
10 -100
27 1
J23 2
13 -200
28 1
J24 4
18 -1
23 -1
24 -1
29 1
J25 4
19 -1
25 -1
26 -1
30 1
J26 4
20 -1
27 -1
28 -1
31 1
G0 2
16 100
17 200
